c 0.001508951187133789 (encode time in sec)
p cnf 21 28
1 2 0
-1 3 0
4 5 6 7 1 8 0
4 5 6 7 -1 0
4 5 6 -7 1 8 0
4 5 6 -7 -1 0
4 5 -6 7 1 12 0
4 5 -6 7 -1 10 0
4 5 -6 -7 1 11 0
4 5 -6 -7 -1 13 0
4 -5 6 7 1 14 0
4 -5 6 7 -1 15 0
4 -5 6 -7 1 16 0
4 -5 6 -7 -1 17 0
4 -5 -6 7 1 18 0
4 -5 -6 7 -1 19 0
4 -5 -6 -7 1 18 0
4 -5 -6 -7 -1 19 0
-4 5 6 7 1 20 0
-4 5 6 7 -1 21 0
-4 5 6 -7 1 8 0
-4 5 6 -7 -1 0
-4 5 -6 7 0
-4 5 -6 -7 0
-4 -5 6 7 0
-4 -5 6 -7 0
-4 -5 -6 7 0
-4 -5 -6 -7 0
